NAME          
ROWS
 N  OBJ
 L  c1
COLUMNS
    MARKER    'MARKER'                 'INTORG'
    x[1]      c1        893
    x[1]      OBJ       -462
    x[2]      c1        138
    x[2]      OBJ       -473
    x[3]      c1        373
    x[3]      OBJ       -903
    x[4]      c1        596
    x[4]      OBJ       -446
    x[5]      c1        850
    x[5]      OBJ       -523
    x[6]      c1        266
    x[6]      OBJ       -362
    x[7]      c1        205
    x[7]      OBJ       -690
    x[8]      c1        187
    x[8]      OBJ       -165
    x[9]      c1        335
    x[9]      OBJ       -875
    x[10]     c1        718
    x[10]     OBJ       -240
    x[11]     c1        242
    x[11]     OBJ       -183
    x[12]     c1        969
    x[12]     OBJ       -496
    x[13]     c1        753
    x[13]     OBJ       -417
    x[14]     c1        58
    x[14]     OBJ       -560
    x[15]     c1        786
    x[15]     OBJ       -567
    x[16]     c1        714
    x[16]     OBJ       -494
    x[17]     c1        820
    x[17]     OBJ       -527
    x[18]     c1        975
    x[18]     OBJ       -57
    x[19]     c1        994
    x[19]     OBJ       -898
    x[20]     c1        432
    x[20]     OBJ       -756
    x[21]     c1        469
    x[21]     OBJ       -978
    x[22]     c1        729
    x[22]     OBJ       -162
    x[23]     c1        552
    x[23]     OBJ       -54
    x[24]     c1        380
    x[24]     OBJ       -907
    x[25]     c1        719
    x[25]     OBJ       -401
    x[26]     c1        190
    x[26]     OBJ       -823
    x[27]     c1        691
    x[27]     OBJ       -250
    x[28]     c1        816
    x[28]     OBJ       -54
    x[29]     c1        498
    x[29]     OBJ       -209
    x[30]     c1        378
    x[30]     OBJ       -8
    x[31]     c1        193
    x[31]     OBJ       -396
    x[32]     c1        485
    x[32]     OBJ       -455
    x[33]     c1        838
    x[33]     OBJ       -80
    x[34]     c1        736
    x[34]     OBJ       -579
    x[35]     c1        634
    x[35]     OBJ       -852
    x[36]     c1        22
    x[36]     OBJ       -680
    x[37]     c1        437
    x[37]     OBJ       -485
    x[38]     c1        228
    x[38]     OBJ       -145
    x[39]     c1        721
    x[39]     OBJ       -683
    x[40]     c1        545
    x[40]     OBJ       -283
    x[41]     c1        310
    x[41]     OBJ       -139
    x[42]     c1        937
    x[42]     OBJ       -880
    x[43]     c1        271
    x[43]     OBJ       -922
    x[44]     c1        875
    x[44]     OBJ       -785
    x[45]     c1        802
    x[45]     OBJ       -830
    x[46]     c1        781
    x[46]     OBJ       -936
    x[47]     c1        696
    x[47]     OBJ       -588
    x[48]     c1        394
    x[48]     OBJ       -349
    x[49]     c1        769
    x[49]     OBJ       -702
    x[50]     c1        493
    x[50]     OBJ       -343
RHS
    rhs       c1        13946
RANGES
BOUNDS
 BV bounds    x[1]
 BV bounds    x[2]
 BV bounds    x[3]
 BV bounds    x[4]
 BV bounds    x[5]
 BV bounds    x[6]
 BV bounds    x[7]
 BV bounds    x[8]
 BV bounds    x[9]
 BV bounds    x[10]
 BV bounds    x[11]
 BV bounds    x[12]
 BV bounds    x[13]
 BV bounds    x[14]
 BV bounds    x[15]
 BV bounds    x[16]
 BV bounds    x[17]
 BV bounds    x[18]
 BV bounds    x[19]
 BV bounds    x[20]
 BV bounds    x[21]
 BV bounds    x[22]
 BV bounds    x[23]
 BV bounds    x[24]
 BV bounds    x[25]
 BV bounds    x[26]
 BV bounds    x[27]
 BV bounds    x[28]
 BV bounds    x[29]
 BV bounds    x[30]
 BV bounds    x[31]
 BV bounds    x[32]
 BV bounds    x[33]
 BV bounds    x[34]
 BV bounds    x[35]
 BV bounds    x[36]
 BV bounds    x[37]
 BV bounds    x[38]
 BV bounds    x[39]
 BV bounds    x[40]
 BV bounds    x[41]
 BV bounds    x[42]
 BV bounds    x[43]
 BV bounds    x[44]
 BV bounds    x[45]
 BV bounds    x[46]
 BV bounds    x[47]
 BV bounds    x[48]
 BV bounds    x[49]
 BV bounds    x[50]
ENDATA
